(set-info :status unknown)
(declare-const symbol_32 (_ BitVec 32))
(declare-const symbol_35 (_ BitVec 32))
(declare-const symbol_25 (_ BitVec 32))
(declare-const symbol_27 (_ BitVec 32))
(declare-const symbol_42 (_ BitVec 32))
(declare-const symbol_17 (_ BitVec 32))
(declare-const symbol_33 (_ BitVec 32))
(declare-const symbol_45 (_ BitVec 32))
(declare-const symbol_10 (_ BitVec 32))
(declare-const symbol_4 (_ BitVec 32))
(declare-const symbol_26 (_ BitVec 32))
(declare-const symbol_28 (_ BitVec 32))
(declare-const symbol_0 (_ BitVec 32))
(declare-const symbol_29 (_ BitVec 32))
(declare-const symbol_23 (_ BitVec 32))
(declare-const symbol_15 (_ BitVec 32))
(declare-const symbol_9 (_ BitVec 32))
(declare-const symbol_44 (_ BitVec 32))
(declare-const symbol_36 (_ BitVec 32))
(declare-const symbol_47 (_ BitVec 32))
(declare-const symbol_16 (_ BitVec 32))
(declare-const symbol_34 (_ BitVec 32))
(declare-const symbol_11 (_ BitVec 32))
(declare-const symbol_3 (_ BitVec 32))
(declare-const symbol_14 (_ BitVec 32))
(declare-const symbol_46 (_ BitVec 32))
(declare-const symbol_38 (_ BitVec 32))
(declare-const symbol_24 (_ BitVec 32))
(declare-const symbol_6 (_ BitVec 32))
(declare-const symbol_1 (_ BitVec 32))
(declare-const symbol_22 (_ BitVec 32))
(declare-const symbol_41 (_ BitVec 32))
(declare-const symbol_18 (_ BitVec 32))
(declare-const symbol_40 (_ BitVec 32))
(declare-const symbol_30 (_ BitVec 32))
(declare-const symbol_37 (_ BitVec 32))
(declare-const symbol_21 (_ BitVec 32))
(declare-const symbol_19 (_ BitVec 32))
(declare-const symbol_43 (_ BitVec 32))
(declare-const symbol_2 (_ BitVec 32))
(declare-const symbol_31 (_ BitVec 32))
(declare-const symbol_20 (_ BitVec 32))
(declare-const symbol_13 (_ BitVec 32))
(declare-const symbol_7 (_ BitVec 32))
(declare-const symbol_39 (_ BitVec 32))
(declare-const symbol_12 (_ BitVec 32))
(declare-const symbol_8 (_ BitVec 32))
(declare-const symbol_5 (_ BitVec 32))
(assert (bvsgt symbol_47 symbol_0))
(assert (not (bvsgt symbol_46 symbol_0)))
(assert (not (bvsgt symbol_45 symbol_0)))
(assert (not (bvsgt symbol_44 symbol_0)))
(assert (not (bvsgt symbol_43 symbol_0)))
(assert (not (bvsgt symbol_42 symbol_0)))
(assert (not (bvsgt symbol_41 symbol_0)))
(assert (not (bvsgt symbol_40 symbol_0)))
(assert (not (bvsgt symbol_39 symbol_0)))
(assert (not (bvsgt symbol_38 symbol_0)))
(assert (not (bvsgt symbol_37 symbol_0)))
(assert (not (bvsgt symbol_36 symbol_0)))
(assert (not (bvsgt symbol_35 symbol_0)))
(assert (not (bvsgt symbol_34 symbol_0)))
(assert (not (bvsgt symbol_33 symbol_0)))
(assert (not (bvsgt symbol_32 symbol_0)))
(assert (not (bvsgt symbol_31 symbol_0)))
(assert (not (bvsgt symbol_30 symbol_0)))
(assert (not (bvsgt symbol_29 symbol_0)))
(assert (not (bvsgt symbol_28 symbol_0)))
(assert (not (bvsgt symbol_27 symbol_0)))
(assert (not (bvsgt symbol_26 symbol_0)))
(assert (not (bvsgt symbol_25 symbol_0)))
(assert (not (bvsgt symbol_24 symbol_0)))
(assert (not (bvsgt symbol_23 symbol_0)))
(assert (not (bvsgt symbol_22 symbol_0)))
(assert (not (bvsgt symbol_21 symbol_0)))
(assert (not (bvsgt symbol_20 symbol_0)))
(assert (not (bvsgt symbol_19 symbol_0)))
(assert (not (bvsgt symbol_18 symbol_0)))
(assert (not (bvsgt symbol_17 symbol_0)))
(assert (not (bvsgt symbol_16 symbol_0)))
(assert (not (bvsgt symbol_15 symbol_0)))
(assert (not (bvsgt symbol_14 symbol_0)))
(assert (not (bvsgt symbol_13 symbol_0)))
(assert (not (bvsgt symbol_12 symbol_0)))
(assert (not (bvsgt symbol_11 symbol_0)))
(assert (not (bvsgt symbol_10 symbol_0)))
(assert (not (bvsgt symbol_9 symbol_0)))
(assert (not (bvsgt symbol_8 symbol_0)))
(assert (not (bvsgt symbol_7 symbol_0)))
(assert (not (bvsgt symbol_6 symbol_0)))
(assert (not (bvsgt symbol_5 symbol_0)))
(assert (not (bvsgt symbol_4 symbol_0)))
(assert (not (bvsgt symbol_3 symbol_0)))
(assert (not (bvsgt symbol_2 symbol_0)))
(assert (bvsgt symbol_0 symbol_1))
(check-sat)